32      4       
13      14      14      11      
0       0       0       0       0       5       2       4       6       7       17      
3       3       0       0       1       4       3       5       8       10      
9       11      0       3       0       4       11      12      15      23      
10      0       0       8       5       3       9       10      13      
10      0       9       0       10      5       11      13      14      23      31      
5       0       11      0       11      4       10      15      16      20      
10      0       9       8       0       3       10      20      23      
7       0       14      10      0       4       12      14      21      23      
9       0       13      9       0       6       14      20      21      23      29      30      
9       6       0       0       7       5       14      21      29      30      31      
10      5       0       0       4       5       16      18      20      28      29      
7       8       0       10      0       6       19      22      28      29      30      31      
4       0       7       1       0       5       19      20      22      28      29      
2       12      1       0       0       4       18      19      27      28      
3       0       2       0       11      4       21      26      27      28      
6       13      0       0       3       4       22      24      26      30      
9       1       0       2       0       4       22      24      27      31      
3       0       1       8       0       2       22      24      
1       9       0       0       5       2       24      26      
7       9       0       0       11      2       24      27      
3       1       12      0       0       2       24      25      
3       1       0       0       1       1       25      
2       0       0       6       5       1       25      
10      0       9       0       2       1       32      
2       0       0       8       1       1       32      
9       0       2       13      0       1       32      
2       0       6       14      0       1       32      
8       7       1       0       0       1       32      
8       0       8       4       0       1       32      
10      1       0       1       0       1       32      
4       11      0       0       6       1       32      
0       0       0       0       0       0       
